Route 1: 0 23 8 66 4 2 89 0
Route 2: 0 39 13 15 74 86 61 44 21 62 0
Route 3: 0 59 52 1 5 7 35 58 34 0
Route 4: 0 95 98 20 63 43 55 16 46 19 0
Route 5: 0 6 12 25 53 78 32 24 64 72 0
Route 6: 0 54 14 75 82 36 92 65 0
Route 7: 0 17 42 70 26 96 3 56 77 88 71 80 93 0
Route 8: 0 28 85 90 10 40 76 48 100 91 37 11 0
Route 9: 0 31 94 18 83 50 51 69 30 97 29 0
Route 10: 0 87 68 81 49 45 22 0
Route 11: 0 57 67 41 33 9 27 47 73 99 38 79 0
Route 12: 0 84 60 0
